c pcminimize - minimizing a CNF with respect to propagation completeness by iterative removing of absorbed clauses.
c Petr Kucera, 2016-2021
c Version 2.7, revision 59, git hash 4910a71, date 2024-07-16 20:17:42 +0200
p cnf 584 1452
205 -251 0
178 -251 0
252 -253 0
-178 -253 0
251 253 -254 0
164 -256 0
255 -256 0
256 -257 0
39 -257 0
258 -259 0
155 -259 0
164 -260 0
-155 -260 0
259 260 -261 0
261 -262 0
-39 -262 0
257 262 -263 0
263 -264 0
174 -264 0
164 -265 0
39 -265 0
258 -266 0
-39 -266 0
265 266 -267 0
267 -268 0
255 -268 0
268 -269 0
-174 -269 0
264 269 -270 0
53 -271 0
271 -273 0
272 -273 0
273 -274 0
134 -274 0
275 -276 0
107 -276 0
53 -277 0
-107 -277 0
276 277 -278 0
278 -279 0
223 -279 0
-53 -280 0
107 -280 0
280 -281 0
-223 -281 0
279 281 -282 0
282 -283 0
-134 -283 0
274 283 -284 0
187 -285 0
286 -287 0
-187 -287 0
285 287 -288 0
16 -289 0
37 -289 0
-84 -289 0
104 -289 0
-185 -289 0
199 -289 0
207 -289 0
232 -289 0
241 -289 0
254 -291 0
270 -291 0
284 -291 0
288 -291 0
289 -291 0
290 -291 0
291 -292 0
148 -292 0
-81 -293 0
-104 -293 0
-178 -293 0
185 -293 0
293 -295 0
294 -295 0
295 -296 0
121 -296 0
84 -297 0
81 -297 0
294 -298 0
-81 -298 0
297 298 -299 0
-104 -300 0
-178 -300 0
300 -301 0
185 -301 0
302 -304 0
303 -304 0
304 -305 0
-185 -305 0
301 305 -306 0
299 -307 0
306 -307 0
307 -308 0
-121 -308 0
296 308 -309 0
288 -310 0
207 -310 0
187 -311 0
311 -312 0
-207 -312 0
310 312 -313 0
-16 -314 0
-37 -314 0
155 -314 0
-199 -314 0
223 -314 0
-232 -314 0
-241 -314 0
315 -317 0
316 -317 0
309 -318 0
267 -318 0
313 -318 0
278 -318 0
314 -318 0
317 -318 0
318 -319 0
252 -319 0
319 -320 0
-148 -320 0
292 320 -321 0
19 -322 0
-48 -322 0
-61 -322 0
-87 -322 0
101 -322 0
-103 -322 0
113 -322 0
118 -322 0
143 -322 0
168 -322 0
179 -322 0
204 -322 0
-215 -322 0
218 -322 0
219 -322 0
-236 -322 0
321 -323 0
322 -323 0
323 -324 0
21 -324 0
19 -325 0
101 -325 0
-103 -325 0
168 -325 0
179 -325 0
218 -325 0
219 -325 0
-236 -325 0
270 -326 0
325 -326 0
326 -327 0
118 -327 0
-19 -328 0
-39 -328 0
-101 -328 0
-164 -328 0
-168 -328 0
-174 -328 0
-179 -328 0
-218 -328 0
-219 -328 0
236 -328 0
329 -330 0
255 -330 0
328 -331 0
330 -331 0
331 -332 0
-118 -332 0
327 332 -333 0
37 -334 0
-84 -334 0
199 -334 0
207 -334 0
333 -335 0
284 -335 0
288 -335 0
334 -335 0
335 -336 0
148 -336 0
-19 -337 0
-37 -337 0
-39 -337 0
-101 -337 0
-118 -337 0
-164 -337 0
-168 -337 0
-174 -337 0
-179 -337 0
-218 -337 0
-219 -337 0
223 -337 0
236 -337 0
315 -339 0
329 -339 0
338 -339 0
255 -339 0
313 -340 0
278 -340 0
337 -340 0
339 -340 0
340 -341 0
294 -341 0
341 -342 0
-148 -342 0
336 342 -343 0
343 -344 0
-61 -344 0
344 -345 0
204 -345 0
345 -346 0
-81 -346 0
346 -347 0
121 -347 0
19 -348 0
-103 -348 0
118 -348 0
168 -348 0
179 -348 0
218 -348 0
219 -348 0
-236 -348 0
270 -349 0
348 -349 0
349 -350 0
101 -350 0
155 -351 0
174 -351 0
255 -352 0
-174 -352 0
351 352 -353 0
-19 -354 0
-39 -354 0
-118 -354 0
-164 -354 0
-168 -354 0
-179 -354 0
-218 -354 0
-219 -354 0
236 -354 0
353 -355 0
354 -355 0
355 -356 0
329 -356 0
356 -357 0
-101 -357 0
350 357 -358 0
37 -359 0
-84 -359 0
199 -359 0
207 -359 0
358 -360 0
284 -360 0
288 -360 0
359 -360 0
360 -361 0
148 -361 0
-19 -362 0
-37 -362 0
-39 -362 0
-101 -362 0
-118 -362 0
-164 -362 0
-168 -362 0
-179 -362 0
-218 -362 0
-219 -362 0
223 -362 0
236 -362 0
315 -363 0
329 -363 0
338 -363 0
299 -364 0
353 -364 0
313 -364 0
278 -364 0
362 -364 0
363 -364 0
364 -365 0
-148 -365 0
361 365 -366 0
366 -367 0
-61 -367 0
367 -368 0
204 -368 0
288 -369 0
284 -369 0
359 -369 0
369 -370 0
148 -370 0
-37 -371 0
223 -371 0
299 -372 0
313 -372 0
278 -372 0
371 -372 0
315 -372 0
372 -373 0
338 -373 0
373 -374 0
-148 -374 0
370 374 -375 0
-19 -376 0
-39 -376 0
-101 -376 0
-118 -376 0
155 -376 0
-164 -376 0
-168 -376 0
174 -376 0
-179 -376 0
-218 -376 0
-219 -376 0
236 -376 0
375 -377 0
376 -377 0
329 -377 0
377 -379 0
378 -379 0
379 -380 0
-204 -380 0
368 380 -381 0
381 -382 0
-121 -382 0
347 382 -383 0
16 -384 0
104 -384 0
-185 -384 0
241 -384 0
383 -385 0
384 -385 0
385 -386 0
232 -386 0
16 -387 0
-19 -387 0
-39 -387 0
-101 -387 0
-118 -387 0
-164 -387 0
-168 -387 0
-174 -387 0
-179 -387 0
-218 -387 0
-219 -387 0
236 -387 0
329 -388 0
255 -388 0
278 -389 0
387 -389 0
388 -389 0
389 -390 0
241 -390 0
-16 -391 0
19 -391 0
-103 -391 0
118 -391 0
155 -391 0
168 -391 0
179 -391 0
218 -391 0
219 -391 0
-236 -391 0
267 -392 0
391 -392 0
316 -392 0
392 -393 0
101 -393 0
-19 -394 0
-39 -394 0
-118 -394 0
-164 -394 0
-168 -394 0
-174 -394 0
-179 -394 0
-218 -394 0
-219 -394 0
236 -394 0
394 -395 0
255 -395 0
395 -397 0
329 -397 0
396 -397 0
397 -398 0
-101 -398 0
393 398 -399 0
53 -400 0
-107 -400 0
399 -401 0
400 -401 0
401 -402 0
-241 -402 0
390 402 -403 0
-61 -404 0
-81 -404 0
-104 -404 0
185 -404 0
204 -404 0
403 -405 0
404 -405 0
294 -405 0
405 -406 0
121 -406 0
16 -407 0
-19 -407 0
-39 -407 0
-101 -407 0
-118 -407 0
-164 -407 0
-168 -407 0
-179 -407 0
-218 -407 0
-219 -407 0
236 -407 0
353 -408 0
278 -408 0
407 -408 0
329 -408 0
408 -409 0
241 -409 0
-16 -410 0
101 -410 0
-103 -410 0
118 -410 0
155 -410 0
168 -410 0
179 -410 0
218 -410 0
219 -410 0
-236 -410 0
267 -411 0
410 -411 0
316 -411 0
411 -412 0
19 -412 0
-39 -413 0
-101 -413 0
-118 -413 0
-164 -413 0
-168 -413 0
-179 -413 0
-218 -413 0
-219 -413 0
236 -413 0
329 -414 0
396 -414 0
353 -415 0
413 -415 0
414 -415 0
415 -416 0
-19 -416 0
412 416 -417 0
417 -418 0
400 -418 0
418 -419 0
-241 -419 0
409 419 -420 0
-104 -421 0
185 -421 0
303 -422 0
-185 -422 0
421 422 -423 0
420 -424 0
423 -424 0
-61 -424 0
424 -425 0
204 -425 0
16 -426 0
241 -426 0
278 -427 0
426 -427 0
427 -428 0
61 -428 0
278 -429 0
241 -429 0
400 -430 0
-241 -430 0
429 430 -431 0
431 -432 0
16 -432 0
53 -433 0
-107 -433 0
-241 -433 0
433 -434 0
-16 -434 0
432 434 -435 0
435 -436 0
-61 -436 0
428 436 -437 0
-19 -438 0
-39 -438 0
-101 -438 0
104 -438 0
-118 -438 0
155 -438 0
-164 -438 0
-168 -438 0
174 -438 0
-179 -438 0
-185 -438 0
-218 -438 0
-219 -438 0
236 -438 0
437 -439 0
438 -439 0
329 -439 0
439 -440 0
-204 -440 0
425 440 -441 0
441 -442 0
299 -442 0
442 -443 0
-121 -443 0
406 443 -444 0
-37 -445 0
-148 -445 0
-199 -445 0
223 -445 0
444 -446 0
313 -446 0
445 -446 0
315 -446 0
446 -447 0
-232 -447 0
386 447 -448 0
48 -449 0
87 -449 0
-113 -449 0
-143 -449 0
-178 -449 0
215 -449 0
448 -450 0
449 -450 0
252 -450 0
450 -451 0
-21 -451 0
324 451 -452 0
-52 -453 0
212 -453 0
452 -454 0
453 -454 0
454 -455 0
137 -455 0
-52 -456 0
53 -456 0
212 -456 0
456 -457 0
272 -457 0
457 -458 0
134 -458 0
-212 -459 0
52 -459 0
460 -461 0
-52 -461 0
459 461 -462 0
462 -463 0
282 -463 0
463 -464 0
-134 -464 0
458 464 -465 0
16 -466 0
37 -466 0
-84 -466 0
104 -466 0
-185 -466 0
199 -466 0
207 -466 0
232 -466 0
241 -466 0
254 -467 0
465 -467 0
288 -467 0
466 -467 0
255 -467 0
467 -468 0
148 -468 0
-134 -469 0
-212 -469 0
469 -470 0
52 -470 0
212 -471 0
134 -471 0
460 -472 0
-134 -472 0
471 472 -473 0
473 -474 0
-52 -474 0
470 474 -475 0
-16 -476 0
-37 -476 0
-104 -476 0
155 -476 0
-178 -476 0
185 -476 0
-199 -476 0
223 -476 0
-232 -476 0
-241 -476 0
475 -477 0
313 -477 0
278 -477 0
476 -477 0
477 -478 0
294 -478 0
252 -478 0
478 -479 0
-148 -479 0
468 479 -480 0
480 -481 0
-81 -481 0
481 -482 0
121 -482 0
53 -483 0
212 -483 0
483 -484 0
272 -484 0
484 -485 0
134 -485 0
282 -486 0
460 -486 0
486 -487 0
-134 -487 0
485 487 -488 0
254 -489 0
488 -489 0
288 -489 0
289 -489 0
255 -489 0
489 -490 0
148 -490 0
299 -491 0
306 -491 0
473 -491 0
313 -491 0
278 -491 0
314 -491 0
491 -492 0
252 -492 0
492 -493 0
-148 -493 0
490 493 -494 0
494 -495 0
-52 -495 0
495 -496 0
-121 -496 0
482 496 -497 0
19 -498 0
-48 -498 0
-87 -498 0
101 -498 0
-103 -498 0
113 -498 0
118 -498 0
143 -498 0
168 -498 0
179 -498 0
-215 -498 0
218 -498 0
219 -498 0
-236 -498 0
497 -499 0
267 -499 0
498 -499 0
499 -500 0
21 -500 0
-16 -501 0
19 -501 0
53 -501 0
-103 -501 0
-107 -501 0
118 -501 0
155 -501 0
168 -501 0
179 -501 0
218 -501 0
219 -501 0
-236 -501 0
-241 -501 0
267 -502 0
501 -502 0
502 -503 0
101 -503 0
435 -504 0
354 -504 0
255 -504 0
504 -505 0
329 -505 0
505 -506 0
-101 -506 0
503 506 -507 0
-81 -508 0
121 -508 0
-134 -508 0
-212 -508 0
508 -509 0
294 -509 0
509 -510 0
52 -510 0
-81 -511 0
294 -511 0
511 -512 0
121 -512 0
299 -513 0
-121 -513 0
512 513 -514 0
473 -515 0
514 -515 0
515 -516 0
-52 -516 0
510 516 -517 0
-37 -518 0
48 -518 0
87 -518 0
-104 -518 0
-113 -518 0
-143 -518 0
-148 -518 0
-178 -518 0
185 -518 0
-199 -518 0
215 -518 0
223 -518 0
-232 -518 0
507 -519 0
313 -519 0
517 -519 0
518 -519 0
252 -519 0
519 -520 0
-21 -520 0
500 520 -521 0
-61 -522 0
-174 -522 0
204 -522 0
521 -523 0
522 -523 0
523 -524 0
-137 -524 0
525 -526 0
45 -527 0
21 -528 0
-48 -528 0
113 -528 0
-215 -528 0
528 -530 0
529 -530 0
530 -531 0
143 -531 0
-48 -532 0
113 -532 0
-215 -532 0
532 -533 0
21 -533 0
48 -534 0
-113 -534 0
215 -534 0
534 -535 0
-21 -535 0
533 535 -536 0
536 -537 0
87 -537 0
537 -538 0
-143 -538 0
531 538 -539 0
270 -540 0
539 -540 0
284 -540 0
453 -540 0
290 -540 0
540 -541 0
137 -541 0
290 -542 0
272 -542 0
456 -543 0
542 -543 0
543 -544 0
134 -544 0
462 -545 0
121 -545 0
-52 -546 0
460 -546 0
546 -547 0
-121 -547 0
545 547 -548 0
548 -549 0
282 -549 0
549 -550 0
-134 -550 0
544 550 -551 0
21 -552 0
-48 -552 0
113 -552 0
143 -552 0
-174 -552 0
-215 -552 0
529 -553 0
255 -553 0
551 -554 0
267 -554 0
552 -554 0
553 -554 0
554 -555 0
-137 -555 0
541 555 -556 0
16 -557 0
19 -557 0
37 -557 0
-61 -557 0
-84 -557 0
101 -557 0
-103 -557 0
104 -557 0
118 -557 0
148 -557 0
168 -557 0
-178 -557 0
179 -557 0
-185 -557 0
199 -557 0
204 -557 0
207 -557 0
218 -557 0
219 -557 0
232 -557 0
-236 -557 0
241 -557 0
252 -559 0
558 -559 0
556 -560 0
288 -560 0
557 -560 0
559 -560 0
-45 -561 0
564 -569 0
565 -569 0
566 -569 0
567 -569 0
568 -569 0
562 -570 0
569 -570 0
-1 0
-2 0
-3 0
4 0
5 0
6 0
7 0
-8 0
9 0
11 0
12 0
-13 0
14 0
-15 0
-17 0
-18 0
-20 0
22 0
23 0
24 0
25 0
26 0
-27 0
-28 0
-29 0
-30 0
-31 0
-32 0
33 0
-34 0
35 0
-36 0
38 0
40 0
43 0
44 0
-46 0
-47 0
-49 0
50 0
51 0
-54 0
55 0
56 0
-57 0
-58 0
59 0
60 0
62 0
-63 0
64 0
-65 0
-66 0
-67 0
-68 0
69 0
70 0
-71 0
72 0
73 0
74 0
-75 0
76 0
-77 0
-78 0
79 0
-80 0
82 0
-83 0
-85 0
86 0
-88 0
90 0
-91 0
92 0
93 0
94 0
-95 0
96 0
-97 0
98 0
99 0
100 0
102 0
105 0
106 0
108 0
109 0
110 0
111 0
112 0
-114 0
-115 0
-116 0
117 0
119 0
-120 0
122 0
-123 0
124 0
125 0
-126 0
-127 0
-128 0
-129 0
-130 0
131 0
-132 0
-135 0
136 0
-138 0
-139 0
140 0
-141 0
142 0
144 0
-145 0
-146 0
147 0
-149 0
150 0
151 0
-152 0
-153 0
156 0
-157 0
-158 0
159 0
-160 0
161 0
162 0
-163 0
165 0
-166 0
-167 0
-169 0
170 0
-171 0
-172 0
173 0
175 0
176 0
177 0
-180 0
181 0
182 0
-183 0
184 0
-186 0
-188 0
189 0
190 0
-191 0
-192 0
193 0
-194 0
-195 0
196 0
197 0
-198 0
200 0
201 0
-202 0
-203 0
206 0
208 0
-209 0
-210 0
-211 0
-213 0
214 0
216 0
217 0
-220 0
221 0
-224 0
-225 0
226 0
227 0
-228 0
-229 0
-230 0
-231 0
233 0
234 0
235 0
-237 0
238 0
-239 0
240 0
242 0
243 0
244 0
-245 0
246 0
247 0
-248 0
249 0
-250 0
-136 583 0
-578 579 0
-574 576 0
-573 574 0
58 572 0
-570 571 0
-424 425 0
-278 279 318 340 364 372 389 408 427 429 477 491 0
-418 419 0
-103 329 0
-416 417 0
-464 465 0
-428 437 0
-315 317 339 363 372 446 0
-457 458 0
-407 408 0
-406 444 0
-403 405 0
-397 398 0
-419 420 0
-563 570 0
-324 452 0
101 328 337 357 362 376 387 398 407 413 438 506 0
-391 392 0
-394 395 0
-303 304 422 0
-388 389 0
-552 554 0
-387 389 0
-422 423 0
-548 549 0
-384 385 0
-223 271 279 314 337 362 371 445 456 476 483 518 0
-380 381 0
-378 379 0
-375 377 0
-326 327 0
-532 533 0
-534 535 0
-367 368 0
-364 365 0
-363 364 0
-361 366 0
121 290 308 382 443 496 513 547 0
-523 524 0
-356 357 0
118 332 337 354 362 376 387 394 407 413 438 0
-517 519 0
-352 353 0
-515 516 0
-349 350 0
-346 347 0
-525 526 0
53 275 280 0
-304 305 0
-290 291 540 542 0
-541 556 0
-342 343 0
-341 342 0
-337 340 0
164 258 328 337 354 362 376 387 394 407 413 438 0
-317 318 0
-437 439 0
-393 399 0
-334 335 0
-333 335 0
-354 355 504 0
81 289 293 298 346 359 404 481 508 511 557 0
-434 435 0
-374 375 0
-481 482 0
-330 331 0
-329 330 339 356 363 377 388 397 408 414 439 505 0
137 524 555 0
-360 361 0
-236 328 337 354 362 376 387 394 407 413 438 0
-556 560 0
-344 345 0
-370 375 0
219 328 337 354 362 376 387 394 407 413 438 0
-338 339 363 373 0
218 328 337 354 362 376 387 394 407 413 438 0
179 328 337 354 362 376 387 394 407 413 438 0
-87 449 518 529 537 0
168 328 337 354 362 376 387 394 407 413 438 0
-366 367 0
-327 333 0
-433 434 0
-484 485 0
-373 374 0
-238 575 0
-402 403 0
-323 324 0
-451 452 0
19 328 337 354 362 376 387 394 407 416 438 0
-218 322 325 348 391 410 498 501 557 0
-336 343 0
-362 364 0
-143 322 498 531 552 0
-41 286 0
-410 411 0
-488 489 0
-283 284 0
-533 536 0
134 283 315 464 469 472 487 508 550 0
-269 270 0
-485 488 0
-282 283 463 486 549 0
-281 282 0
-279 282 0
-277 278 0
-275 276 0
-365 366 0
-425 441 0
-405 406 0
48 322 498 528 532 552 0
-392 393 0
-168 322 325 348 391 410 498 501 557 0
-487 488 0
-368 381 0
-274 284 0
-404 405 0
-465 467 0
-284 291 335 360 369 540 0
-547 548 0
-137 455 541 0
-398 399 0
-134 274 315 458 471 485 544 0
-270 291 326 349 540 0
-276 278 0
-148 292 336 361 370 468 490 557 0
174 269 316 328 337 352 387 394 522 552 0
-259 261 0
-255 256 268 330 339 352 388 395 467 489 504 553 0
-399 401 0
-340 341 0
155 255 260 0
-164 256 258 260 265 0
-345 346 0
178 253 293 300 302 449 476 518 557 0
-500 521 0
-371 372 0
-262 263 0
-252 253 319 450 478 492 519 559 0
-545 548 0
-272 273 457 484 542 0
-113 322 498 528 532 552 0
-254 291 467 489 0
-309 318 0
-498 499 0
107 272 277 400 433 501 0
236 322 325 348 391 410 498 501 557 0
-296 309 0
-351 353 0
-514 515 0
215 322 498 528 532 552 0
-316 317 392 411 0
-491 492 0
-273 274 0
87 322 498 529 0
-178 251 302 0
-420 424 0
241 314 402 419 430 433 476 501 0
-421 423 0
-107 272 276 280 0
199 314 338 445 476 518 0
-263 264 0
-121 290 296 347 406 482 508 512 545 0
-301 306 0
143 449 518 538 0
-264 270 0
-528 530 0
-415 416 0
-322 323 0
-446 447 0
-518 519 0
187 287 0
-313 318 340 364 372 446 477 491 519 0
-39 257 265 0
-261 262 0
-205 251 252 0
-343 344 0
-555 556 0
-372 373 0
-474 475 0
-256 257 0
-310 313 0
-308 309 0
-454 455 0
204 380 440 0
-101 322 325 350 393 410 498 503 557 0
-265 267 0
-429 431 0
-266 267 0
-179 322 325 348 391 410 498 501 557 0
-286 287 0
185 289 305 384 422 438 466 557 0
-430 431 0
-379 380 0
-267 268 318 392 411 499 502 554 0
-431 432 0
-268 269 0
-348 349 0
-289 291 489 0
-413 415 0
-355 356 0
-414 415 0
-516 517 0
-16 289 384 387 396 407 426 432 466 557 0
-295 296 0
104 293 300 303 404 421 476 518 0
-185 293 301 404 421 476 518 0
-335 336 0
-292 321 0
-104 289 303 384 438 466 557 0
-253 254 0
207 312 0
-271 273 0
39 262 266 328 337 354 362 376 387 394 407 413 438 0
-549 550 0
84 289 294 334 359 466 557 0
-37 289 334 359 466 557 0
-199 289 334 338 359 466 557 0
-353 355 364 408 415 0
-510 517 0
-81 297 0
-232 289 386 466 557 0
-241 289 384 390 409 426 429 466 557 0
-170 582 0
-312 313 0
205 252 0
-258 259 266 0
-389 390 0
-159 578 0
-499 500 0
-219 322 325 348 391 410 498 501 557 0
-280 281 0
-400 401 418 430 0
-294 295 298 341 405 478 509 511 0
-381 382 0
223 281 0
-492 493 0
-155 255 259 314 351 376 391 410 438 476 501 0
-572 573 0
-297 299 0
-496 497 0
-542 543 0
-311 312 0
-452 454 0
-560 561 0
-409 420 0
-369 370 0
-19 322 325 348 391 412 498 501 557 0
-204 322 345 368 404 425 522 557 0
-460 461 472 486 546 0
-291 292 0
-495 496 0
-385 386 0
-285 288 0
-347 383 0
-490 494 0
16 314 391 396 410 434 476 501 0
-396 397 414 0
-298 299 0
-302 304 0
232 314 447 476 518 0
-497 499 0
-543 544 0
-299 307 364 372 442 491 513 0
-546 547 0
-260 261 0
-118 322 327 348 391 410 498 501 557 0
-257 263 0
-395 397 0
-442 443 0
-305 306 0
-306 307 491 0
-377 379 0
-480 481 0
148 320 342 365 374 445 479 493 518 0
21 451 520 535 0
-401 402 0
-390 403 0
-207 289 310 334 359 466 557 0
-321 323 0
103 322 325 329 348 391 410 498 501 557 0
-21 324 500 528 533 552 0
-439 440 0
-445 446 0
-293 295 0
-331 332 0
-435 436 504 0
-436 437 0
-438 439 0
-332 333 0
-440 441 0
-441 442 0
-443 444 0
-444 446 0
-448 450 0
-544 551 0
-408 409 0
-48 449 518 534 0
113 449 518 534 0
-522 523 0
-215 449 518 534 0
-450 451 0
-412 417 0
52 453 456 461 474 495 516 546 0
-453 454 540 0
-174 264 316 351 376 438 0
-455 525 0
-359 360 369 0
-456 457 543 0
-458 465 0
-582 584 0
212 459 460 469 508 0
-52 459 470 510 0
-459 462 0
-461 462 0
37 314 337 362 371 445 476 518 0
-462 463 545 0
-463 464 0
-466 467 0
-508 509 0
-467 468 0
-468 480 0
-423 424 0
-557 560 0
-469 470 0
-84 294 297 0
-470 475 0
-212 453 456 460 471 483 0
-471 473 0
-472 473 0
-473 474 491 515 0
-476 477 0
-477 478 0
-478 479 0
-479 480 0
29 580 0
-482 497 0
-483 484 0
-486 487 0
-489 490 0
-382 383 0
-287 288 0
-493 494 0
-288 291 310 335 360 369 467 489 560 0
-383 385 0
-494 495 0
-501 502 0
-300 301 0
-503 507 0
-447 448 0
-551 554 0
-504 505 0
-505 506 0
-251 254 0
-506 507 0
-507 519 0
-509 510 0
-512 514 0
-358 360 0
-513 514 0
-519 520 0
-520 521 0
-411 412 0
-521 523 0
-524 525 0
154 526 558 0
-526 527 0
-307 308 0
-325 326 0
-432 435 0
-529 530 553 0
-187 285 311 0
-530 531 0
-531 539 0
-535 536 0
-449 450 0
-536 537 0
-537 538 0
-538 539 0
-539 540 0
-540 541 0
-386 448 0
-550 551 0
-553 554 0
-554 555 0
-154 558 0
-558 559 0
-559 560 0
-61 378 428 0
-217 577 0
-357 358 0
-318 319 0
-320 321 0
-350 358 0
-319 320 0
-426 427 0
-417 418 0
-427 428 0
-579 581 0
-475 477 0
-376 377 0
-314 318 491 0
-502 503 0
-511 512 0
-328 331 0
-339 340 0
-193 563 0
